42	0

0	3	2	4	5
1	3	3	6	7
4	1	8
2	1	7
7	2	10	11
4	1	8
1	2	8	9
10	2	10	11
6	2	10	11
8	1	12
7	2	12	14
3	1	13
9	2	15	16
6	2	15	16
10	2	17	18
6	3	17	18	19
2	2	20	23
9	2	21	23
5	2	20	23
9	1	21
4	2	22	24
5	2	25	26
8	2	24	25
6	1	26
8	1	28
4	2	27	28
5	2	29	30
9	2	29	30
2	2	31	32
8	2	31	32
10	1	36
4	1	33
1	1	34
2	3	35	36	37
10	2	38	39
7	2	38	39
10	2	38	39
1	2	40	41
1	2	40	41
8	1	42
10	1	42
0	0
